proyfinal/src/viki/013/andrea/andrea-localstore/experimentInOfficeAgust.take6/worker_3/395cdc1f-6685-49f8-b349-d9835cfd4813.als.cnf.out
Reading from standard input... Use '--help' for help.
============================[ Problem Statistics ]=============================
|                                                                             |
|  Number of variables:         87638                                         |
|  Number of clauses:          161767                                         |
|  Parse time:                   0.04 s                                       |
|                                                                             |
============================[ Search Statistics ]==============================
| Conflicts |          ORIGINAL         |          LEARNT          | Progress |
|           |    Vars  Clauses Literals |    Limit  Clauses Lit/Cl |          |
===============================================================================
|       100 |   62731   106376   265972 |    39004      100     41 | 28.420 % |
|       250 |   62704   106266   265715 |    42904      249     56 | 28.451 % |
|       475 |   62703   106222   265625 |    47195      473     87 | 28.452 % |
|       812 |   62703   106222   265625 |    51915      810     97 | 28.452 % |
|      1318 |   62703   106222   265625 |    57106     1316     91 | 28.452 % |
|      2077 |   62703   106222   265625 |    62817     2075    101 | 28.452 % |
|      3216 |   62703   106222   265625 |    69098     3214    102 | 28.452 % |
|      4924 |   62703   106222   265625 |    76008     4922     99 | 28.452 % |
|      7486 |   62677   106079   265313 |    83609     6864     98 | 28.482 % |
===============================================================================
restarts              : 45
conflicts             : 10197          (5770 /sec)
decisions             : 34233          (0.00 % random) (19370 /sec)
propagations          : 17514454       (9910284 /sec)
conflict literals     : 901851         (51.97 % deleted)
Memory used           : 26.73 MB
CPU time              : 1.7673 s

UNSATISFIABLE
